NAME /Users/henri/Research/solvers/instances/idol-instances/robust/collection/cbp_Subramanyam_et_al_2020/CapBud_N10_7/models/uncertain_technology_matrix/
ROWS
 N  OBJ
 L  capacity
 L  c_670
 L  c_671
 L  c_672
 L  c_673
 L  c_674
 L  c_675
 L  c_676
 L  c_677
 L  c_678
 L  c_679
COLUMNS
    MARKER    'MARKER'                 'INTORG'
    x_0        OBJ        -0.869553
    x_0        c_670      1
    x_0        capacity   0.173911
    x_1        OBJ        -9.30877
    x_1        c_671      1
    x_1        capacity   1.86175
    x_2        OBJ        -6.94394
    x_2        c_672      1
    x_2        capacity   1.38879
    x_3        OBJ        -7.78242
    x_3        c_673      1
    x_3        capacity   1.55648
    x_4        OBJ        -7.91615
    x_4        c_674      1
    x_4        capacity   1.58323
    x_5        OBJ        -8.23341
    x_5        c_675      1
    x_5        capacity   1.64668
    x_6        OBJ        -3.82342
    x_6        c_676      1
    x_6        capacity   0.764684
    x_7        OBJ        -9.34781
    x_7        c_677      1
    x_7        capacity   1.86956
    x_8        OBJ        -4.69588
    x_8        c_678      1
    x_8        capacity   0.939176
    x_9        OBJ        -2.1596
    x_9        c_679      1
    x_9        capacity   0.431919
    y_0        OBJ        -0.695643
    y_0        c_670      1
    y_0        capacity   0.173911
    y_1        OBJ        -7.44702
    y_1        c_671      1
    y_1        capacity   1.86175
    y_2        OBJ        -5.55515
    y_2        c_672      1
    y_2        capacity   1.38879
    y_3        OBJ        -6.22593
    y_3        c_673      1
    y_3        capacity   1.55648
    y_4        OBJ        -6.33292
    y_4        c_674      1
    y_4        capacity   1.58323
    y_5        OBJ        -6.58673
    y_5        c_675      1
    y_5        capacity   1.64668
    y_6        OBJ        -3.05873
    y_6        c_676      1
    y_6        capacity   0.764684
    y_7        OBJ        -7.47825
    y_7        c_677      1
    y_7        capacity   1.86956
    y_8        OBJ        -3.75671
    y_8        c_678      1
    y_8        capacity   0.939176
    y_9        OBJ        -1.72768
    y_9        c_679      1
    y_9        capacity   0.431919
    MARKER    'MARKER'                 'INTEND'
RHS
    RHS       capacity   30.5405
    RHS       c_670      1
    RHS       c_671      1
    RHS       c_672      1
    RHS       c_673      1
    RHS       c_674      1
    RHS       c_675      1
    RHS       c_676      1
    RHS       c_677      1
    RHS       c_678      1
    RHS       c_679      1
BOUNDS
 LI BND       x_0        0
 UI BND       x_0        1
 LI BND       x_1        0
 UI BND       x_1        1
 LI BND       x_2        0
 UI BND       x_2        1
 LI BND       x_3        0
 UI BND       x_3        1
 LI BND       x_4        0
 UI BND       x_4        1
 LI BND       x_5        0
 UI BND       x_5        1
 LI BND       x_6        0
 UI BND       x_6        1
 LI BND       x_7        0
 UI BND       x_7        1
 LI BND       x_8        0
 UI BND       x_8        1
 LI BND       x_9        0
 UI BND       x_9        1
 LI BND       y_0        0
 UI BND       y_0        1
 LI BND       y_1        0
 UI BND       y_1        1
 LI BND       y_2        0
 UI BND       y_2        1
 LI BND       y_3        0
 UI BND       y_3        1
 LI BND       y_4        0
 UI BND       y_4        1
 LI BND       y_5        0
 UI BND       y_5        1
 LI BND       y_6        0
 UI BND       y_6        1
 LI BND       y_7        0
 UI BND       y_7        1
 LI BND       y_8        0
 UI BND       y_8        1
 LI BND       y_9        0
 UI BND       y_9        1
ENDATA
